(set-logic HORN)
(declare-datatypes ((Nat_0 0)) (((Z_0 ) (S_0 (unS_0 Nat_0)))))
(declare-fun diseqNat_0 (Nat_0 Nat_0) Bool)
(declare-fun unS_1 (Nat_0 Nat_0) Bool)
(declare-fun isZ_0 (Nat_0) Bool)
(declare-fun isS_0 (Nat_0) Bool)
(assert (forall ((x_64 Nat_0) (x_63 Nat_0))
	(=> (= x_64 (S_0 x_63))
	    (unS_1 x_63 x_64))))
(assert (isZ_0 Z_0))
(assert (forall ((x_65 Nat_0))
	(isS_0 (S_0 x_65))))
(assert (forall ((x_66 Nat_0))
	(diseqNat_0 Z_0 (S_0 x_66))))
(assert (forall ((x_67 Nat_0))
	(diseqNat_0 (S_0 x_67) Z_0)))
(assert (forall ((x_68 Nat_0) (x_69 Nat_0))
	(=> (diseqNat_0 x_68 x_69)
	    (diseqNat_0 (S_0 x_68) (S_0 x_69)))))
(declare-fun add_0 (Nat_0 Nat_0 Nat_0) Bool)
(declare-fun minus_0 (Nat_0 Nat_0 Nat_0) Bool)
(declare-fun le_0 (Nat_0 Nat_0) Bool)
(declare-fun ge_0 (Nat_0 Nat_0) Bool)
(declare-fun lt_0 (Nat_0 Nat_0) Bool)
(declare-fun gt_0 (Nat_0 Nat_0) Bool)
(declare-fun mult_0 (Nat_0 Nat_0 Nat_0) Bool)
(declare-fun div_0 (Nat_0 Nat_0 Nat_0) Bool)
(declare-fun mod_0 (Nat_0 Nat_0 Nat_0) Bool)
(assert (forall ((y_6 Nat_0))
	(add_0 y_6 Z_0 y_6)))
(assert (forall ((x_55 Nat_0) (y_6 Nat_0) (r_0 Nat_0))
	(=> (add_0 r_0 x_55 y_6)
	    (add_0 (S_0 r_0) (S_0 x_55) y_6))))
(assert (forall ((y_6 Nat_0))
	(minus_0 Z_0 Z_0 y_6)))
(assert (forall ((x_55 Nat_0) (y_6 Nat_0) (r_0 Nat_0))
	(=> (minus_0 r_0 x_55 y_6)
	    (minus_0 (S_0 r_0) (S_0 x_55) y_6))))
(assert (forall ((y_6 Nat_0))
	(le_0 Z_0 y_6)))
(assert (forall ((x_55 Nat_0) (y_6 Nat_0))
	(=> (le_0 x_55 y_6)
	    (le_0 (S_0 x_55) (S_0 y_6)))))
(assert (forall ((y_6 Nat_0))
	(ge_0 y_6 Z_0)))
(assert (forall ((x_55 Nat_0) (y_6 Nat_0))
	(=> (ge_0 x_55 y_6)
	    (ge_0 (S_0 x_55) (S_0 y_6)))))
(assert (forall ((y_6 Nat_0))
	(lt_0 Z_0 (S_0 y_6))))
(assert (forall ((x_55 Nat_0) (y_6 Nat_0))
	(=> (lt_0 x_55 y_6)
	    (lt_0 (S_0 x_55) (S_0 y_6)))))
(assert (forall ((y_6 Nat_0))
	(gt_0 (S_0 y_6) Z_0)))
(assert (forall ((x_55 Nat_0) (y_6 Nat_0))
	(=> (gt_0 x_55 y_6)
	    (gt_0 (S_0 x_55) (S_0 y_6)))))
(assert (forall ((y_6 Nat_0))
	(mult_0 Z_0 Z_0 y_6)))
(assert (forall ((x_55 Nat_0) (y_6 Nat_0) (r_0 Nat_0) (z_5 Nat_0))
	(=>	(and (mult_0 r_0 x_55 y_6)
			(add_0 z_5 r_0 y_6))
		(mult_0 z_5 (S_0 x_55) y_6))))
(assert (forall ((x_55 Nat_0) (y_6 Nat_0))
	(=> (lt_0 x_55 y_6)
	    (div_0 Z_0 x_55 y_6))))
(assert (forall ((x_55 Nat_0) (y_6 Nat_0) (r_0 Nat_0) (z_5 Nat_0))
	(=>	(and (ge_0 x_55 y_6)
			(minus_0 z_5 x_55 y_6)
			(div_0 r_0 z_5 y_6))
		(div_0 (S_0 r_0) x_55 y_6))))
(assert (forall ((x_55 Nat_0) (y_6 Nat_0))
	(=> (lt_0 x_55 y_6)
	    (mod_0 x_55 x_55 y_6))))
(assert (forall ((x_55 Nat_0) (y_6 Nat_0) (r_0 Nat_0) (z_5 Nat_0))
	(=>	(and (ge_0 x_55 y_6)
			(minus_0 z_5 x_55 y_6)
			(mod_0 r_0 z_5 y_6))
		(mod_0 r_0 x_55 y_6))))
(declare-datatypes ((list_0 0)) (((nil_0 ) (cons_0 (head_0 Nat_0) (tail_0 list_0)))))
(declare-fun diseqlist_0 (list_0 list_0) Bool)
(declare-fun head_1 (Nat_0 list_0) Bool)
(declare-fun tail_1 (list_0 list_0) Bool)
(declare-fun isnil_0 (list_0) Bool)
(declare-fun iscons_0 (list_0) Bool)
(assert (forall ((x_73 list_0) (x_71 Nat_0) (x_72 list_0))
	(=> (= x_73 (cons_0 x_71 x_72))
	    (head_1 x_71 x_73))))
(assert (forall ((x_73 list_0) (x_71 Nat_0) (x_72 list_0))
	(=> (= x_73 (cons_0 x_71 x_72))
	    (tail_1 x_72 x_73))))
(assert (isnil_0 nil_0))
(assert (forall ((x_74 Nat_0) (x_75 list_0))
	(iscons_0 (cons_0 x_74 x_75))))
(assert (forall ((x_76 Nat_0) (x_77 list_0))
	(diseqlist_0 nil_0 (cons_0 x_76 x_77))))
(assert (forall ((x_78 Nat_0) (x_79 list_0))
	(diseqlist_0 (cons_0 x_78 x_79) nil_0)))
(assert (forall ((x_80 Nat_0) (x_81 list_0) (x_82 Nat_0) (x_83 list_0))
	(=> (diseqNat_0 x_80 x_82)
	    (diseqlist_0 (cons_0 x_80 x_81) (cons_0 x_82 x_83)))))
(assert (forall ((x_80 Nat_0) (x_81 list_0) (x_82 Nat_0) (x_83 list_0))
	(=> (diseqlist_0 x_81 x_83)
	    (diseqlist_0 (cons_0 x_80 x_81) (cons_0 x_82 x_83)))))
(declare-fun take_0 (list_0 Nat_0 list_0) Bool)
(assert (forall ((x_0 Nat_0) (y_0 list_0) (x_13 list_0))
	(=>	(and (= x_13 nil_0)
			(le_0 x_0 Z_0))
		(take_0 x_13 x_0 y_0))))
(assert (forall ((x_0 Nat_0) (y_0 list_0) (z_0 Nat_0) (xs_0 list_0) (x_14 list_0) (x_15 list_0) (x_56 Nat_0))
	(=>	(and (= x_14 (cons_0 z_0 x_15))
			(take_0 x_15 x_56 xs_0)
			(gt_0 x_0 Z_0)
			(= y_0 (cons_0 z_0 xs_0))
			(minus_0 x_56 x_0 (S_0 Z_0)))
		(take_0 x_14 x_0 y_0))))
(assert (forall ((x_0 Nat_0) (y_0 list_0) (x_16 list_0))
	(=>	(and (= x_16 nil_0)
			(le_0 x_0 Z_0))
		(take_0 x_16 x_0 y_0))))
(assert (forall ((x_0 Nat_0) (y_0 list_0) (x_17 list_0))
	(=>	(and (= x_17 nil_0)
			(gt_0 x_0 Z_0)
			(= y_0 nil_0))
		(take_0 x_17 x_0 y_0))))
(declare-fun nmsorttdhalf_0 (Nat_0 Nat_0) Bool)
(assert (forall ((x_1 Nat_0) (x_18 Nat_0))
	(=>	(and (= x_18 Z_0)
			(= x_1 (S_0 Z_0)))
		(nmsorttdhalf_0 x_18 x_1))))
(assert (forall ((x_1 Nat_0) (x_19 Nat_0))
	(=>	(and (= x_19 Z_0)
			(diseqNat_0 x_1 (S_0 Z_0))
			(= x_1 Z_0))
		(nmsorttdhalf_0 x_19 x_1))))
(assert (forall ((x_1 Nat_0) (x_20 Nat_0))
	(=>	(and (= x_20 Z_0)
			(= x_1 (S_0 Z_0)))
		(nmsorttdhalf_0 x_20 x_1))))
(assert (forall ((x_1 Nat_0) (x_21 Nat_0) (x_22 Nat_0) (x_57 Nat_0) (x_58 Nat_0))
	(=>	(and (= x_21 x_57)
			(nmsorttdhalf_0 x_22 x_58)
			(diseqNat_0 x_1 (S_0 Z_0))
			(diseqNat_0 x_1 Z_0)
			(add_0 x_57 (S_0 Z_0) x_22)
			(minus_0 x_58 x_1 (S_0 (S_0 Z_0))))
		(nmsorttdhalf_0 x_21 x_1))))
(declare-fun lmerge_0 (list_0 list_0 list_0) Bool)
(assert (forall ((x_2 list_0) (y_1 list_0) (z_1 Nat_0) (x_3 list_0) (x_4 Nat_0) (x_5 list_0) (x_23 list_0) (x_24 list_0))
	(=>	(and (= x_23 (cons_0 z_1 x_24))
			(lmerge_0 x_24 x_3 (cons_0 x_4 x_5))
			(= x_2 (cons_0 z_1 x_3))
			(= y_1 (cons_0 x_4 x_5))
			(le_0 z_1 x_4))
		(lmerge_0 x_23 x_2 y_1))))
(assert (forall ((x_2 list_0) (y_1 list_0) (z_1 Nat_0) (x_3 list_0) (x_4 Nat_0) (x_5 list_0) (x_25 list_0) (x_26 list_0))
	(=>	(and (= x_25 (cons_0 x_4 x_26))
			(lmerge_0 x_26 (cons_0 z_1 x_3) x_5)
			(= x_2 (cons_0 z_1 x_3))
			(= y_1 (cons_0 x_4 x_5))
			(gt_0 z_1 x_4))
		(lmerge_0 x_25 x_2 y_1))))
(assert (forall ((x_2 list_0) (y_1 list_0) (z_1 Nat_0) (x_3 list_0) (x_27 list_0))
	(=>	(and (= x_27 (cons_0 z_1 x_3))
			(= x_2 (cons_0 z_1 x_3))
			(= y_1 nil_0))
		(lmerge_0 x_27 x_2 y_1))))
(assert (forall ((x_2 list_0) (y_1 list_0) (x_28 list_0))
	(=>	(and (= x_28 y_1)
			(= x_2 nil_0))
		(lmerge_0 x_28 x_2 y_1))))
(declare-fun length_0 (Nat_0 list_0) Bool)
(assert (forall ((x_6 list_0) (y_2 Nat_0) (l_0 list_0) (x_29 Nat_0) (x_30 Nat_0) (x_59 Nat_0))
	(=>	(and (= x_29 x_59)
			(length_0 x_30 l_0)
			(= x_6 (cons_0 y_2 l_0))
			(add_0 x_59 (S_0 Z_0) x_30))
		(length_0 x_29 x_6))))
(assert (forall ((x_6 list_0) (x_31 Nat_0))
	(=>	(and (= x_31 Z_0)
			(= x_6 nil_0))
		(length_0 x_31 x_6))))
(declare-fun drop_0 (list_0 Nat_0 list_0) Bool)
(assert (forall ((x_7 Nat_0) (y_3 list_0) (x_32 list_0))
	(=>	(and (= x_32 y_3)
			(le_0 x_7 Z_0))
		(drop_0 x_32 x_7 y_3))))
(assert (forall ((x_7 Nat_0) (y_3 list_0) (z_2 Nat_0) (xs_1 list_0) (x_33 list_0) (x_34 list_0) (x_60 Nat_0))
	(=>	(and (= x_33 x_34)
			(drop_0 x_34 x_60 xs_1)
			(gt_0 x_7 Z_0)
			(= y_3 (cons_0 z_2 xs_1))
			(minus_0 x_60 x_7 (S_0 Z_0)))
		(drop_0 x_33 x_7 y_3))))
(assert (forall ((x_7 Nat_0) (y_3 list_0) (x_35 list_0))
	(=>	(and (= x_35 y_3)
			(le_0 x_7 Z_0))
		(drop_0 x_35 x_7 y_3))))
(assert (forall ((x_7 Nat_0) (y_3 list_0) (x_36 list_0))
	(=>	(and (= x_36 nil_0)
			(gt_0 x_7 Z_0)
			(= y_3 nil_0))
		(drop_0 x_36 x_7 y_3))))
(declare-fun nmsorttd_0 (list_0 list_0) Bool)
(assert (forall ((x_8 list_0) (y_4 Nat_0) (z_3 list_0) (x_9 Nat_0) (x_10 list_0) (k_0 Nat_0) (x_39 list_0) (x_40 list_0) (x_41 list_0) (x_42 list_0) (x_43 list_0) (x_44 list_0) (x_37 Nat_0) (x_38 Nat_0))
	(=>	(and (= x_39 x_44)
			(take_0 x_40 k_0 (cons_0 y_4 (cons_0 x_9 x_10)))
			(nmsorttd_0 x_41 x_40)
			(drop_0 x_42 k_0 (cons_0 y_4 (cons_0 x_9 x_10)))
			(nmsorttd_0 x_43 x_42)
			(lmerge_0 x_44 x_41 x_43)
			(= x_8 (cons_0 y_4 z_3))
			(= z_3 (cons_0 x_9 x_10))
			(= k_0 x_38)
			(length_0 x_37 (cons_0 y_4 (cons_0 x_9 x_10)))
			(nmsorttdhalf_0 x_38 x_37))
		(nmsorttd_0 x_39 x_8))))
(assert (forall ((x_8 list_0) (y_4 Nat_0) (z_3 list_0) (x_45 list_0))
	(=>	(and (= x_45 (cons_0 y_4 nil_0))
			(= x_8 (cons_0 y_4 z_3))
			(= z_3 nil_0))
		(nmsorttd_0 x_45 x_8))))
(assert (forall ((x_8 list_0) (x_46 list_0))
	(=>	(and (= x_46 nil_0)
			(= x_8 nil_0))
		(nmsorttd_0 x_46 x_8))))
(declare-fun count_0 (Nat_0 Nat_0 list_0) Bool)
(assert (forall ((x_11 Nat_0) (y_5 list_0) (z_4 Nat_0) (ys_0 list_0) (x_47 Nat_0) (x_48 Nat_0) (x_61 Nat_0))
	(=>	(and (= x_47 x_61)
			(count_0 x_48 x_11 ys_0)
			(= y_5 (cons_0 z_4 ys_0))
			(= x_11 z_4)
			(add_0 x_61 (S_0 Z_0) x_48))
		(count_0 x_47 x_11 y_5))))
(assert (forall ((x_11 Nat_0) (y_5 list_0) (z_4 Nat_0) (ys_0 list_0) (x_49 Nat_0) (x_50 Nat_0))
	(=>	(and (= x_49 x_50)
			(count_0 x_50 x_11 ys_0)
			(= y_5 (cons_0 z_4 ys_0))
			(diseqNat_0 x_11 z_4))
		(count_0 x_49 x_11 y_5))))
(assert (forall ((x_11 Nat_0) (y_5 list_0) (x_51 Nat_0))
	(=>	(and (= x_51 Z_0)
			(= y_5 nil_0))
		(count_0 x_51 x_11 y_5))))
(assert (forall ((x_12 Nat_0) (xs_2 list_0) (x_52 list_0) (x_53 Nat_0) (x_54 Nat_0))
	(=>	(and (diseqNat_0 x_53 x_54)
			(nmsorttd_0 x_52 xs_2)
			(count_0 x_53 x_12 x_52)
			(count_0 x_54 x_12 xs_2))
		false)))
(check-sat)
